oldPaths = [0, 0, 0, 0, 1, 1, 0, 0, 1, 1, 1, 1];
maxQueue = 15;
AllPaths = 1..12;
Serial = 1..maxQueue;
Property = 1..2;
WaitingQueue = array3d(AllPaths,Property,Serial,
[1, 5, 1, 1, 1, 1, 1, 1, 1, 1, 1, 1, 1, 0, 0, 
61, 61, 61, 61, 61, 61, 61, 61, 61, 61, 61, 61, 61, 0, 0, 
1, 1, 1, 1, 1, 1, 1, 1, 1, 1, 1, 1, 1, 1, 1, 
61, 61, 61, 61, 61, 61, 61, 61, 61, 61, 61, 61, 61, 61, 61, 
1, 1, 1, 1, 1, 2, 1, 3, 1, 1, 1, 1, 1, 1, 1, 
61, 61, 61, 61, 61, 61, 61, 61, 61, 61, 61, 61, 61, 61, 61, 
1, 6, 1, 2, 1, 1, 1, 1, 1, 1, 1, 1, 1, 0, 0, 
61, 61, 61, 61, 61, 61, 61, 61, 61, 61, 61, 61, 61, 0, 0, 
4, 1, 1, 1, 1, 1, 1, 1, 1, 1, 1, 1, 1, 0, 0, 
61, 61, 61, 61, 61, 61, 61, 61, 61, 61, 61, 61, 61, 0, 0, 
1, 1, 1, 1, 6, 1, 1, 1, 1, 1, 1, 1, 1, 0, 0, 
61, 61, 61, 61, 61, 61, 61, 61, 61, 61, 61, 61, 61, 0, 0, 
1, 1, 1, 1, 1, 1, 1, 1, 1, 5, 1, 1, 1, 0, 0, 
61, 61, 61, 61, 61, 61, 61, 61, 61, 61, 61, 61, 61, 0, 0, 
1, 1, 1, 7, 1, 1, 1, 4, 1, 1, 1, 1, 1, 0, 0, 
61, 61, 61, 61, 61, 61, 61, 61, 61, 61, 61, 61, 61, 0, 0, 
1, 1, 1, 0, 0, 0, 0, 0, 0, 0, 0, 0, 0, 0, 0, 
61, 61, 61, 0, 0, 0, 0, 0, 0, 0, 0, 0, 0, 0, 0, 
1, 1, 1, 0, 0, 0, 0, 0, 0, 0, 0, 0, 0, 0, 0, 
61, 61, 61, 0, 0, 0, 0, 0, 0, 0, 0, 0, 0, 0, 0, 
1, 1, 1, 0, 0, 0, 0, 0, 0, 0, 0, 0, 0, 0, 0, 
61, 61, 61, 0, 0, 0, 0, 0, 0, 0, 0, 0, 0, 0, 0, 
1, 1, 1, 0, 0, 0, 0, 0, 0, 0, 0, 0, 0, 0, 0, 
61, 61, 61, 0, 0, 0, 0, 0, 0, 0, 0, 0, 0, 0, 0]);
